18015 16802 500 499 498 497 496 494 493 490 487 484 483 481 480 478 476 475 474 472 471 470 469 468 467 464 463 462 461 460 459 457 455 453 452 451 450 448 447 446 444 443 442 441 439 438 437 434 431 430 428 427 426 425 423 422 418 417 416 415 414 412 411 410 409 405 402 401 400 399 398 396 395 394 393 392 390 388 385 384 383 382 381 380 377 375 373 372 370 369 368 367 364 363 361 360 359 358 357 356 354 353 352 351 350 347 346 345 344 343 342 341 340 339 338 337 336 334 333 332 331 330 329 328 327 326 324 323 322 319 317 316 315 312 309 308 307 306 304 302 299 296 292 291 290 289 288 287 285 284 282 281 280 276 274 272 269 268 266 265 263 262 261 260 258 257 256 255 253 252 251 248 247 246 244 243 241 240 239 237 235 234 232 228 227 226 225 224 222 221 220 215 214 213 211 210 209 207 204 200 198 197 196 194 193 192 190 189 188 187 185 184 183 181 180 178 177 174 171 169 168 167 165 161 160 159 155 153 152 151 149 148 147 143 142 141 139 138 137 136 135 134 133 132 130 129 128 126 122 118 112 111 110 109 108 107 106 102 99 98 95 94 93 92 91 90 83 81 80 79 78 77 76 75 74 73 71 70 69 68 67 66 65 63 61 58 56 55 54 53 52 51 49 48 45 44 43 42 40 39 34 33 32 30 29 27 26 24 23 22 21 18 16 15 14 12 9 8 7 6 5 3 2 